succeed=True
[CUDA] cuda: usage: 5.43 GB
0 :  {link #0 : 1}, {link #1 : 2}, {link #2 : 3},
1 :  {link #0 : 2}, {link #1 : 3}, {link #2 : 0},
2 :  {link #0 : 3}, {link #1 : 0}, {link #2 : 1},
3 :  {link #0 : 0}, {link #1 : 1}, {link #2 : 2},
0 :  {link #0 : 1}, {link #1 : 2}, {link #2 : 3},
1 :  {link #0 : 2}, {link #1 : 3}, {link #2 : 0},
2 :  {link #0 : 3}, {link #1 : 0}, {link #2 : 1},
3 :  {link #0 : 0}, {link #1 : 1}, {link #2 : 2},
0 :  {link #0 : 1}, {link #1 : 2}, {link #2 : 3},
1 :  {link #0 : 2}, {link #1 : 3}, {link #2 : 0},
2 :  {link #0 : 3}, {link #1 : 0}, {link #2 : 1},
3 :  {link #0 : 0}, {link #1 : 1}, {link #2 : 2},
0 : local 72, cpu 8 {link #0 : g1 24}, {link #1 : g2 24}, {link #2 : g3 24},
1 : local 72, cpu 8 {link #0 : g2 24}, {link #1 : g3 24}, {link #2 : g0 24},
2 : local 72, cpu 8 {link #0 : g3 24}, {link #1 : g0 24}, {link #2 : g1 24},
3 : local 72, cpu 8 {link #0 : g0 24}, {link #1 : g1 24}, {link #2 : g2 24},
0 : local 72, cpu 8 {link #0 : g1 24}, {link #1 : g2 24}, {link #2 : g3 24},
1 : local 72, cpu 8 {link #0 : g2 24}, {link #1 : g3 24}, {link #2 : g0 24},
2 : local 72, cpu 8 {link #0 : g3 24}, {link #1 : g0 24}, {link #2 : g1 24},
3 : local 72, cpu 8 {link #0 : g0 24}, {link #1 : g1 24}, {link #2 : g2 24},
0 : local 72, cpu 8 {link #0 : g1 24}, {link #1 : g2 24}, {link #2 : g3 24},
1 : local 72, cpu 8 {link #0 : g2 24}, {link #1 : g3 24}, {link #2 : g0 24},
2 : local 72, cpu 8 {link #0 : g3 24}, {link #1 : g0 24}, {link #2 : g1 24},
3 : local 72, cpu 8 {link #0 : g0 24}, {link #1 : g1 24}, {link #2 : g2 24},
0 :  {link #0 : 1}, {link #1 : 2}, {link #2 : 3},
1 :  {link #0 : 2}, {link #1 : 3}, {link #2 : 0},
2 :  {link #0 : 3}, {link #1 : 0}, {link #2 : 1},
3 :  {link #0 : 0}, {link #1 : 1}, {link #2 : 2},
0 : local 72, cpu 8 {link #0 : g1 24}, {link #1 : g2 24}, {link #2 : g3 24},
1 : local 72, cpu 8 {link #0 : g2 24}, {link #1 : g3 24}, {link #2 : g0 24},
2 : local 72, cpu 8 {link #0 : g3 24}, {link #1 : g0 24}, {link #2 : g1 24},
3 : local 72, cpu 8 {link #0 : g0 24}, {link #1 : g1 24}, {link #2 : g2 24},
Set parameter WLSAccessID
Set parameter WLSSecret
Set parameter LicenseID
Set parameter TimeLimit to value 200
Set parameter MIPGap to value 0.05
Set parameter LogFile to value "cppsolver.log"
Set parameter Threads to value 40
Academic license - for non-commercial use only - registered to xiaoniu.sxn@sjtu.edu.cn
Gurobi Optimizer version 9.5.1 build v9.5.1rc2 (linux64)
Thread count: 40 physical cores, 80 logical processors, using up to 40 threads
Academic license - for non-commercial use only - registered to xiaoniu.sxn@sjtu.edu.cn
Optimize a model with 55356 rows, 18093 columns and 170264 nonzeros
Model fingerprint: 0x47b52eb2
Variable types: 5 continuous, 18088 integer (18088 binary)
Coefficient statistics:
  Matrix range     [1e-03, 1e+03]
  Objective range  [1e+00, 1e+00]
  Bounds range     [1e+00, 1e+00]
  RHS range        [1e+00, 1e+03]
Found heuristic solution: objective 6766.2330465
Presolve removed 38311 rows and 4 columns
Presolve time: 0.25s
Presolved: 17045 rows, 18089 columns, 81945 nonzeros
Variable types: 1 continuous, 18088 integer (18088 binary)

Root relaxation: objective 3.770341e+02, 15456 iterations, 0.44 seconds (0.50 work units)

    Nodes    |    Current Node    |     Objective Bounds      |     Work
 Expl Unexpl |  Obj  Depth IntInf | Incumbent    BestBd   Gap | It/Node Time

     0     0  377.03406    0   39 6766.23305  377.03406  94.4%     -    1s
H    0     0                     379.1386165  377.03406  0.56%     -    2s

Explored 1 nodes (29727 simplex iterations) in 2.82 seconds (2.43 work units)
Thread count was 40 (of 80 available processors)

Solution count 2: 379.139 6766.23 

Optimal solution found (tolerance 5.00e-02)
Best objective 3.791386164562e+02, best bound 3.770340551539e+02, gap 0.5551%
coll_cache:optimal_local_rate=0.813326,0.811147,0.809988,0.811969,
coll_cache:optimal_remote_rate=0.164844,0.167023,0.168182,0.166202,
coll_cache:optimal_cpu_rate=0.0218297,0.0218297,0.0218297,0.0218297,
z=379.139
test_result:init:feat_nbytes=56862697472
test_result:init:cache_nbytes=3468624384
test_result:init:feat_nbytes=56862697472
test_result:init:cache_nbytes=3468624384
test_result:init:feat_nbytes=56862697472
test_result:init:cache_nbytes=3468624384
test_result:init:feat_nbytes=56862697472
test_result:init:cache_nbytes=3468624384
    [Step(average) Profiler Level 1 E3 S147]
        L1  sample           0.004269 | send           0.000000
        L1  recv             0.000000 | copy           0.003311 | convert time 0.000000 | train  0.008485
        L1  feature nbytes  520.43 MB | label nbytes 0.00 Bytes
        L1  id nbytes      0.00 Bytes | graph nbytes 0.00 Bytes
        L1  miss nbytes      18.28 MB | remote nbytes   82.75 MB
        L1  num nodes               0 | num samples           0
    [Step(average) Profiler Level 2 E3 S147]
        L2  shuffle     0.000000 | core sample  0.000000 | id remap        0.000000
        L2  graph copy  0.000000 | id copy      0.000000 | cache feat copy 0.003311
        L2  last layer sample time 0.000000 | size 0.000000
    [Step(average) Profiler Level 3 E3 S147]
        L3  khop sample coo  0.000000 | khop sort coo      0.000000 | khop count edge     0.000000 | khop compact edge 0.000000
        L3  walk sample coo  0.000000 | walk topk total    0.000000 | walk topk step1     0.000000 | walk topk step2   0.000000
        L3  walk topk step3  0.000000 | walk topk step4    0.000000 | walk topk step5     0.000000
        L3  walk topk step6  0.000000 | walk topk step7    0.000000
        L3  remap unique     0.000000 | remap populate     0.000000 | remap mapnode       0.000000 | remap mapedge     0.000000
        L3  cache get_index  0.000832 | cache copy_index   0.000000 | cache extract_miss  0.000000
        L3  cache copy_miss  0.000000 | cache combine_miss 0.002437 | cache combine cache 0.001057 | cache combine remote 0.000869
        L3  label extract  0.000000
    [Profiler Level Percentiles E3 S147]
        p50.00_tail_logl2featcopy=0.003354
        p90.00_tail_logl2featcopy=0.003621
        p95.00_tail_logl2featcopy=0.003659
        p99.00_tail_logl2featcopy=0.004871
        p99.90_tail_logl2featcopy=0.006840
[CUDA] cuda: usage: 12.40 GB
Rank=2, Graph loaded.
!!!!Train_dataloader(with 37 items) enumerate latency: 1.4682097434997559
!!!!Train_data_list(with 37 items) enumerate latency: 6.67572021484375e-06, transfer latency: 1.4045722484588623
presamping
presamping takes 2.126375675201416
Rank=3, Graph loaded.
!!!!Train_dataloader(with 37 items) enumerate latency: 1.4503891468048096
!!!!Train_data_list(with 37 items) enumerate latency: 7.867813110351562e-06, transfer latency: 1.463270902633667
presamping
presamping takes 2.0431888103485107
config:eval_tsp="2023-04-12 03:29:55"
config:num_worker=4
config:root_dir=/nvme/songxiaoniu/graph-learning/wholegraph
config:graph_name=ogbn-papers100M
config:epochs=4
config:batchsize=8000
config:skip_epoch=2
config:local_step=250
config:presc_epoch=2
config:neighbors=10,25
config:hiddensize=256
config:num_layer=2
config:model=sage
config:framework=dgl
config:dataloaderworkers=0
config:dropout=0.5
config:lr=0.003
config:use_nccl=False
config:use_amp=True
config:use_collcache=True
config:cache_percentage=0.06
config:cache_policy=coll_cache_asymm_link
config:omp_thread_num=40
config:unsupervised=False
config:classnum=172
config:global_barrier=<multiprocessing.synchronize.Barrier object at 0x7f39fcef0430>
config:worker_id=0
creating_intra_node_communicator root=0, local_size=4, world_size=4
Rank=0, Graph loaded.
!!!!Train_dataloader(with 37 items) enumerate latency: 1.780165433883667
!!!!Train_data_list(with 37 items) enumerate latency: 6.4373016357421875e-06, transfer latency: 1.7616419792175293
epoch=4 total_steps=148
presamping
presamping takes 1.9090466499328613
start training...
[Epoch 0], time=1.7283275127410889, loss=5.043058395385742
[Epoch 1], time=0.599254846572876, loss=4.946725845336914
[Epoch 2], time=0.5951306819915771, loss=4.861143589019775
[Epoch 3], time=0.5952329635620117, loss=4.785395622253418
|===========================================================================|
|                  PyTorch CUDA memory summary, device ID 0                 |
|---------------------------------------------------------------------------|
|            CUDA OOMs: 0            |        cudaMalloc retries: 0         |
|===========================================================================|
|        Metric         | Cur Usage  | Peak Usage | Tot Alloc  | Tot Freed  |
|---------------------------------------------------------------------------|
| Allocated memory      |   75095 KB |  396569 KB |  209280 MB |  209206 MB |
|       from large pool |   68526 KB |  390257 KB |  206789 MB |  206722 MB |
|       from small pool |    6569 KB |    9163 KB |    2490 MB |    2484 MB |
|---------------------------------------------------------------------------|
| Active memory         |   75095 KB |  396569 KB |  209280 MB |  209206 MB |
|       from large pool |   68526 KB |  390257 KB |  206789 MB |  206722 MB |
|       from small pool |    6569 KB |    9163 KB |    2490 MB |    2484 MB |
|---------------------------------------------------------------------------|
| GPU reserved memory   |    1092 MB |    1092 MB |    1092 MB |       0 B  |
|       from large pool |    1080 MB |    1080 MB |    1080 MB |       0 B  |
|       from small pool |      12 MB |      12 MB |      12 MB |       0 B  |
|---------------------------------------------------------------------------|
| Non-releasable memory |   23208 KB |  340410 KB |  186006 MB |  185983 MB |
|       from large pool |   19537 KB |  335409 KB |  183358 MB |  183339 MB |
|       from small pool |    3671 KB |    6908 KB |    2647 MB |    2643 MB |
|---------------------------------------------------------------------------|
| Allocations           |      55    |      69    |   23521    |   23466    |
|       from large pool |      11    |      22    |    8534    |    8523    |
|       from small pool |      44    |      49    |   14987    |   14943    |
|---------------------------------------------------------------------------|
| Active allocs         |      55    |      69    |   23521    |   23466    |
|       from large pool |      11    |      22    |    8534    |    8523    |
|       from small pool |      44    |      49    |   14987    |   14943    |
|---------------------------------------------------------------------------|
| GPU reserved segments |      21    |      21    |      21    |       0    |
|       from large pool |      15    |      15    |      15    |       0    |
|       from small pool |       6    |       6    |       6    |       0    |
|---------------------------------------------------------------------------|
| Non-releasable allocs |      19    |      32    |    9359    |    9340    |
|       from large pool |       5    |      15    |    5094    |    5089    |
|       from small pool |      14    |      23    |    4265    |    4251    |
|---------------------------------------------------------------------------|
| Oversize allocations  |       0    |       0    |       0    |       0    |
|---------------------------------------------------------------------------|
| Oversize GPU segments |       0    |       0    |       0    |       0    |
|===========================================================================|

[TRAIN_TIME] train time is 3.518693 seconds
[EPOCH_TIME] 0.879673 seconds, maybe large due to not enough epoch skipped.
[EPOCH_TIME] 0.595298 seconds
Rank=1, Graph loaded.
!!!!Train_dataloader(with 37 items) enumerate latency: 1.4503588676452637
!!!!Train_data_list(with 37 items) enumerate latency: 7.867813110351562e-06, transfer latency: 1.4359290599822998
presamping
presamping takes 1.6002368927001953

